\ Model knapsack_60_10_5
\ LP format - for model browsing. Use MPS format to capture full model detail.
\ Signature: 0x3c7c1d9d9cf83ca1
Minimize
  - 742 y[0] - 715 y[1] - 551 y[2] - 415 y[3] - 945 y[4] - 949 y[5]
   - 262 y[6] - 1005 y[7] - 459 y[8] - 142 y[9] - 420 y[10] - 826 y[11]
   - 916 y[12] - 206 y[13] - 662 y[14] - 996 y[15] - 404 y[16] - 563 y[17]
   - 357 y[18] - 947 y[19] - 274 y[20] - 124 y[21] - 1014 y[22] - 228 y[23]
   - 667 y[24] - 968 y[25] - 431 y[26] - 107 y[27] - 547 y[28] - 356 y[29]
   - 791 y[30] - 853 y[31] - 1020 y[32] - 331 y[33] - 643 y[34] - 843 y[35]
   - 776 y[36] - 535 y[37] - 609 y[38] - 282 y[39] - 972 y[40] - 998 y[41]
   - 522 y[42] - 552 y[43] - 667 y[44] - 841 y[45] - 353 y[46] - 873 y[47]
   - 299 y[48] - 366 y[49] - 795 y[50] - 143 y[51] - 337 y[52] - 253 y[53]
   - 354 y[54] - 632 y[55] - 140 y[56] - 583 y[57] - 130 y[58] - 913 y[59]
Subject To
 primal_upper: 642 y[0] + 615 y[1] + 451 y[2] + 315 y[3] + 845 y[4]
   + 849 y[5] + 162 y[6] + 905 y[7] + 359 y[8] + 42 y[9] + 320 y[10]
   + 726 y[11] + 816 y[12] + 106 y[13] + 562 y[14] + 896 y[15] + 304 y[16]
   + 463 y[17] + 257 y[18] + 847 y[19] + 174 y[20] + 24 y[21] + 914 y[22]
   + 128 y[23] + 567 y[24] + 868 y[25] + 331 y[26] + 7 y[27] + 447 y[28]
   + 256 y[29] + 691 y[30] + 753 y[31] + 920 y[32] + 231 y[33] + 543 y[34]
   + 743 y[35] + 676 y[36] + 435 y[37] + 509 y[38] + 182 y[39] + 872 y[40]
   + 898 y[41] + 422 y[42] + 452 y[43] + 567 y[44] + 741 y[45] + 253 y[46]
   + 773 y[47] + 199 y[48] + 266 y[49] + 695 y[50] + 43 y[51] + 237 y[52]
   + 153 y[53] + 254 y[54] + 532 y[55] + 40 y[56] + 483 y[57] + 30 y[58]
   + 813 y[59] + 64 z[0] + 62 z[1] + 45 z[2] + 32 z[3] + 84 z[4] + 85 z[5]
   + 16 z[6] + 90 z[7] + 36 z[8] + 4 z[9] + 32 z[10] + 73 z[11] + 82 z[12]
   + 11 z[13] + 56 z[14] + 90 z[15] + 30 z[16] + 46 z[17] + 26 z[18]
   + 85 z[19] + 17 z[20] + 2 z[21] + 91 z[22] + 13 z[23] + 57 z[24]
   + 87 z[25] + 33 z[26] + z[27] + 45 z[28] + 26 z[29] + 69 z[30]
   + 75 z[31] + 92 z[32] + 23 z[33] + 54 z[34] + 74 z[35] + 68 z[36]
   + 44 z[37] + 51 z[38] + 18 z[39] + 87 z[40] + 90 z[41] + 42 z[42]
   + 45 z[43] + 57 z[44] + 74 z[45] + 25 z[46] + 77 z[47] + 20 z[48]
   + 27 z[49] + 70 z[50] + 4 z[51] + 24 z[52] + 15 z[53] + 25 z[54]
   + 53 z[55] + 4 z[56] + 48 z[57] + 3 z[58] + 81 z[59] <= 4767
 primal_lower0: - 26 y[0] - 124 y[1] - 92 y[2] - 37 y[3] - 56 y[4]
   - 25 y[5] - 56 y[6] - 6 y[7] - 40 y[8] - 98 y[9] - 159 y[10] - 115 y[11]
   - 118 y[12] - 32 y[13] - 81 y[14] - 34 y[15] - 129 y[16] - 134 y[17]
   - 21 y[18] - 152 y[19] - 14 y[20] - 90 y[21] - 13 y[22] - 75 y[23]
   - 63 y[24] - 80 y[25] - 77 y[26] - 42 y[27] - 163 y[28] - 63 y[29]
   - 70 y[30] - 150 y[31] - 153 y[32] - 158 y[33] - 86 y[34] - 147 y[35]
   - 87 y[36] - 99 y[37] - 116 y[38] - 162 y[39] - 53 y[40] - 113 y[41]
   - 153 y[42] - 7 y[43] - 89 y[44] - 114 y[45] - 44 y[46] - 148 y[47]
   - 59 y[48] - 154 y[49] - 101 y[50] - 110 y[51] - 14 y[52] - 118 y[53]
   - 58 y[54] - 18 y[55] - 71 y[56] - 130 y[57] - 88 y[58] - 40 y[59]
   + 705 u[0] + 178 u[1] + 98 u[2] + 398 u[3] + 20 u[4] + 580 u[5]
   + 321 u[6] + 948 u[7] + 966 u[8] + 253 u[9] + 679 u[10] + 521 u[11]
   + 207 u[12] + 541 u[13] + 441 u[14] + 107 u[15] + 807 u[16] + 490 u[17]
   + 840 u[18] + 458 u[19] + 117 u[20] + 443 u[21] + 937 u[22] + 427 u[23]
   + 62 u[24] + 207 u[25] + 850 u[26] + 882 u[27] + 270 u[28] + 963 u[29]
   + 642 u[30] + 252 u[31] + 399 u[32] + 354 u[33] + 6 u[34] + 874 u[35]
   + 587 u[36] + 414 u[37] + 708 u[38] + 105 u[39] + 975 u[40] + 173 u[41]
   + 549 u[42] + 871 u[43] + 638 u[44] + 136 u[45] + 212 u[46] + 728 u[47]
   + 486 u[48] + 221 u[49] + 614 u[50] + 358 u[51] + 164 u[52] + 756 u[53]
   + 773 u[54] + 175 u[55] + 807 u[56] + 206 u[57] + 957 u[58] + 760 u[59]
   <= 9872
 primal_lower1: - 109 y[0] - 116 y[1] - 48 y[2] - 107 y[3] - 17 y[4]
   - 141 y[5] - 186 y[6] - 52 y[7] - 112 y[8] - 19 y[9] - 155 y[10]
   - 240 y[11] - 80 y[12] - 291 y[13] - 8 y[14] - 207 y[15] - 6 y[16]
   - 92 y[17] - 87 y[18] - 243 y[19] - 219 y[20] - 273 y[21] - 52 y[22]
   - 24 y[23] - 107 y[24] - 222 y[25] - 108 y[26] - 159 y[27] - 293 y[28]
   - 280 y[29] - 80 y[30] - 89 y[31] - 43 y[32] - 188 y[33] - 232 y[34]
   - 179 y[35] - 101 y[36] - 104 y[37] - 135 y[38] - 218 y[39] - 12 y[40]
   - 140 y[41] - 3 y[42] - 247 y[43] - 249 y[44] - 42 y[45] - 125 y[46]
   - 44 y[47] - 168 y[48] - 141 y[49] - 113 y[50] - 213 y[51] - 252 y[52]
   - 267 y[53] - 173 y[54] - 96 y[55] - 99 y[56] - 271 y[57] - 248 y[58]
   - 22 y[59] + 963 u[0] + 324 u[1] + 724 u[2] + 608 u[3] + 990 u[4]
   + 278 u[5] + 547 u[6] + 86 u[7] + 200 u[8] + 975 u[9] + 321 u[10]
   + 995 u[11] + 993 u[12] + 183 u[13] + 515 u[14] + 325 u[15] + 729 u[16]
   + 276 u[17] + 370 u[18] + 204 u[19] + 295 u[20] + 501 u[21] + 179 u[22]
   + 141 u[23] + 336 u[24] + 201 u[25] + 876 u[26] + 820 u[27] + 416 u[28]
   + 5 u[29] + 812 u[30] + 654 u[31] + 265 u[32] + 108 u[33] + 888 u[34]
   + 44 u[35] + 605 u[36] + 288 u[37] + 814 u[38] + 411 u[39] + 513 u[40]
   + 591 u[41] + 879 u[42] + 801 u[43] + 720 u[44] + 386 u[45] + 46 u[46]
   + 858 u[47] + 24 u[48] + 63 u[49] + 128 u[50] + 104 u[51] + 190 u[52]
   + 814 u[53] + 63 u[54] + 169 u[55] + 161 u[56] + 664 u[57] + 479 u[58]
   + 178 u[59] <= 18064
 primal_lower2: - 247 y[0] - 168 y[1] - 198 y[2] - 152 y[3] - 95 y[4]
   - 190 y[5] - 209 y[6] - 139 y[7] - 167 y[8] - 43 y[9] - 212 y[10]
   - 233 y[11] - 239 y[12] - 9 y[13] - 8 y[14] - 221 y[15] - 242 y[16]
   - 232 y[17] - 180 y[18] - 110 y[19] - 200 y[20] - 15 y[21] - 105 y[22]
   - 40 y[23] - 61 y[24] - 70 y[25] - 123 y[26] - 254 y[27] - 60 y[28]
   - 238 y[29] - 90 y[30] - 2 y[31] - 115 y[32] - 156 y[33] - 56 y[34]
   - 267 y[35] - 50 y[36] - 259 y[37] - 113 y[38] - 151 y[39] - 136 y[40]
   - 76 y[41] - 195 y[42] - 134 y[43] - 140 y[44] - 105 y[45] - 110 y[46]
   - 57 y[47] - 239 y[48] - 168 y[49] - 206 y[50] - 138 y[51] - 162 y[52]
   - 76 y[53] - 163 y[54] - 262 y[55] - 236 y[56] - 115 y[57] - 217 y[58]
   - 139 y[59] + 781 u[0] + 951 u[1] + 9 u[2] + 856 u[3] + 183 u[4]
   + 761 u[5] + 592 u[6] + 133 u[7] + 121 u[8] + 219 u[9] + 479 u[10]
   + 578 u[11] + 610 u[12] + 907 u[13] + 121 u[14] + 741 u[15] + 266 u[16]
   + 728 u[17] + 871 u[18] + 292 u[19] + 921 u[20] + 688 u[21] + 888 u[22]
   + 724 u[23] + 729 u[24] + 84 u[25] + 921 u[26] + 667 u[27] + 474 u[28]
   + 272 u[29] + 946 u[30] + 365 u[31] + 962 u[32] + 943 u[33] + 309 u[34]
   + 291 u[35] + 398 u[36] + 380 u[37] + 115 u[38] + 979 u[39] + 458 u[40]
   + 715 u[41] + 405 u[42] + 696 u[43] + 721 u[44] + 597 u[45] + 988 u[46]
   + 73 u[47] + 762 u[48] + 914 u[49] + 789 u[50] + 496 u[51] + 127 u[52]
   + 465 u[53] + 109 u[54] + 25 u[55] + 283 u[56] + 203 u[57] + 476 u[58]
   + 618 u[59] <= 16087
 primal_lower3: - y[0] - y[1] - 5 y[2] - 9 y[3] - 8 y[4] - 9 y[6] - 2 y[7]
   - 4 y[8] - y[9] - 8 y[10] - 6 y[11] - 7 y[12] - 6 y[14] - 14 y[15]
   - 9 y[16] - 4 y[17] - 4 y[18] - 14 y[19] - 11 y[21] - 4 y[22] - 5 y[23]
   - 7 y[24] - 15 y[25] - 11 y[26] - 6 y[27] - 15 y[28] - 12 y[29]
   - 4 y[30] - 15 y[31] - 16 y[32] - 6 y[33] - 4 y[34] - 16 y[35] - 6 y[36]
   - 6 y[37] - 8 y[38] - 7 y[39] - 9 y[40] - 12 y[41] - 13 y[42] - 11 y[43]
   - 7 y[44] - 11 y[45] - 8 y[46] - 13 y[48] - 14 y[49] - 7 y[50]
   - 12 y[51] - 8 y[52] - 2 y[54] - 2 y[55] - 16 y[56] - 16 y[57]
   - 14 y[58] - 7 y[59] + 45 u[0] + 863 u[1] + 561 u[2] + 352 u[3]
   + 199 u[4] + 33 u[5] + 624 u[6] + 397 u[7] + 809 u[8] + 747 u[9]
   + 791 u[10] + 442 u[11] + 154 u[12] + 915 u[13] + 105 u[14] + 677 u[15]
   + 674 u[16] + 184 u[17] + 983 u[18] + 68 u[19] + 513 u[20] + 888 u[21]
   + 824 u[22] + 908 u[23] + 41 u[24] + 212 u[25] + 233 u[26] + 179 u[27]
   + 698 u[28] + 416 u[29] + 426 u[30] + 933 u[31] + 562 u[32] + 87 u[33]
   + 493 u[34] + 355 u[35] + 822 u[36] + 204 u[37] + 547 u[38] + 883 u[39]
   + 650 u[40] + 339 u[41] + 685 u[42] + 592 u[43] + 177 u[44] + 349 u[45]
   + 660 u[46] + 457 u[47] + 218 u[48] + 634 u[49] + 37 u[50] + 336 u[51]
   + 455 u[52] + 209 u[53] + 181 u[54] + 193 u[55] + 819 u[56] + 499 u[57]
   + 364 u[58] + 426 u[59] <= 983
 primal_lower4: - 45 y[0] - 110 y[1] - 152 y[2] - 104 y[3] - 25 y[4]
   - 4 y[5] - 122 y[6] - 130 y[7] - 46 y[8] - 151 y[9] - 83 y[10]
   - 107 y[11] - 127 y[12] - 58 y[13] - 139 y[14] - 133 y[15] - 46 y[16]
   - 57 y[17] - 8 y[18] - 82 y[19] - 68 y[20] - 41 y[21] - 158 y[23]
   - 33 y[24] - 146 y[25] - 165 y[26] - 158 y[27] - 87 y[28] - 165 y[29]
   - 155 y[30] - 30 y[31] - 11 y[32] - 131 y[33] - 136 y[34] - 27 y[35]
   - 30 y[36] - 50 y[37] - 165 y[38] - 51 y[39] - 88 y[40] - 75 y[41]
   - 50 y[42] - 52 y[43] - 141 y[44] - 121 y[45] - 97 y[46] - 25 y[47]
   - 90 y[48] - 80 y[49] - 103 y[50] - 105 y[51] - 41 y[52] - 123 y[53]
   - 77 y[54] - 118 y[55] - 40 y[56] - 128 y[57] - 169 y[58] - 19 y[59]
   + 583 u[0] + 384 u[1] + 608 u[2] + 924 u[3] + 458 u[4] + 42 u[5]
   + 423 u[6] + 954 u[7] + 772 u[8] + 867 u[9] + 5 u[10] + 751 u[11]
   + 173 u[12] + 451 u[13] + 159 u[14] + 225 u[15] + 805 u[16] + 120 u[17]
   + 590 u[18] + 384 u[19] + 411 u[20] + 249 u[21] + 23 u[22] + 625 u[23]
   + 396 u[24] + 829 u[25] + 96 u[26] + 888 u[27] + 620 u[28] + 809 u[29]
   + 184 u[30] + 938 u[31] + 525 u[32] + 520 u[33] + 732 u[34] + 712 u[35]
   + 921 u[36] + 12 u[37] + 562 u[38] + 567 u[39] + 365 u[40] + 715 u[41]
   + 515 u[42] + 309 u[43] + 180 u[44] + 742 u[45] + 218 u[46] + 470 u[47]
   + 964 u[48] + 635 u[49] + 124 u[50] + 732 u[51] + 66 u[52] + 138 u[53]
   + 811 u[54] + 861 u[55] + 925 u[56] + 548 u[57] + 819 u[58] + 182 u[59]
   <= 10205
 primal_lower5: - y[0] - 54 y[1] - 48 y[2] - 15 y[3] - 23 y[4] - 36 y[5]
   - 15 y[6] - 53 y[7] - 63 y[8] - 62 y[9] - 60 y[10] - 38 y[11] - y[12]
   - 39 y[13] - 50 y[14] - 70 y[15] - 31 y[16] - 63 y[17] - 18 y[18]
   - 44 y[19] - 58 y[20] - y[21] - 13 y[22] - 5 y[23] - 70 y[24] - 8 y[25]
   - 49 y[26] - 50 y[27] - 57 y[28] - 31 y[29] - 35 y[30] - 31 y[31]
   - 28 y[32] - 51 y[33] - 60 y[34] - 21 y[35] - 20 y[36] - 23 y[37]
   - 9 y[38] - 62 y[39] - 32 y[40] - 33 y[41] - 56 y[42] - 26 y[43]
   - 71 y[44] - 34 y[45] - 56 y[46] - 9 y[47] - 16 y[48] - 57 y[49]
   - 68 y[51] - 42 y[52] - 67 y[53] - 14 y[54] - 50 y[55] - 48 y[56]
   - 50 y[57] - 47 y[58] - 22 y[59] + 676 u[0] + 473 u[1] + 229 u[2]
   + 605 u[3] + 63 u[4] + 995 u[5] + 252 u[6] + 419 u[7] + 953 u[8]
   + 28 u[9] + 754 u[10] + 1000 u[11] + 826 u[12] + 916 u[13] + 548 u[14]
   + 338 u[15] + 346 u[16] + 401 u[17] + 307 u[18] + 433 u[19] + 432 u[20]
   + 362 u[21] + 204 u[22] + 514 u[23] + 849 u[24] + 222 u[25] + 141 u[26]
   + 497 u[27] + 121 u[28] + 418 u[29] + 885 u[30] + 283 u[31] + 994 u[32]
   + 169 u[33] + 17 u[34] + 385 u[35] + 534 u[36] + 477 u[37] + 631 u[38]
   + 520 u[39] + 698 u[40] + 388 u[41] + 240 u[42] + 702 u[43] + 225 u[44]
   + 143 u[45] + 127 u[46] + 127 u[47] + 9 u[48] + 748 u[49] + 721 u[50]
   + 541 u[51] + 487 u[52] + 507 u[53] + 984 u[54] + 6 u[55] + 274 u[56]
   + 229 u[57] + 320 u[58] + 287 u[59] <= 4496
 primal_lower6: - 15 y[0] - 6 y[1] - 9 y[2] - 75 y[3] - 56 y[4] - 42 y[5]
   - 42 y[6] - 68 y[7] - 17 y[8] - 34 y[9] - 70 y[10] - 58 y[11] - 64 y[12]
   - 22 y[13] - 21 y[14] - 76 y[15] - 6 y[16] - 20 y[17] - 69 y[18]
   - 54 y[19] - 44 y[20] - 44 y[21] - 34 y[22] - 28 y[23] - 67 y[24]
   - 11 y[25] - 37 y[26] - 75 y[27] - 37 y[28] - 51 y[29] - 51 y[30]
   - 71 y[31] - y[32] - 11 y[33] - 35 y[34] - 75 y[35] - 8 y[36] - 41 y[37]
   - 52 y[38] - 18 y[39] - 49 y[40] - 45 y[41] - 62 y[42] - 11 y[43]
   - 72 y[45] - 51 y[46] - 57 y[47] - 21 y[48] - 55 y[49] - 75 y[50]
   - 2 y[51] - 59 y[52] - 64 y[53] - 6 y[54] - 44 y[55] - 62 y[56]
   - 77 y[57] - 53 y[58] - 24 y[59] + 90 u[0] + 816 u[1] + 502 u[2]
   + 617 u[3] + 524 u[4] + 514 u[5] + 365 u[6] + 486 u[7] + 286 u[8]
   + 340 u[9] + 820 u[10] + 819 u[11] + 855 u[12] + 92 u[13] + 318 u[14]
   + 454 u[15] + 95 u[16] + 889 u[17] + 156 u[18] + 949 u[19] + 838 u[20]
   + 97 u[21] + 837 u[22] + 757 u[23] + 910 u[24] + 325 u[25] + 590 u[26]
   + 68 u[27] + 551 u[28] + 353 u[29] + 639 u[30] + 22 u[31] + 271 u[32]
   + 840 u[33] + 250 u[34] + 948 u[35] + 83 u[36] + 885 u[37] + 896 u[38]
   + 724 u[39] + 719 u[40] + 740 u[41] + 482 u[42] + 809 u[43] + 22 u[44]
   + 350 u[45] + 361 u[46] + 186 u[47] + 119 u[48] + 115 u[49] + 714 u[50]
   + 73 u[51] + 412 u[52] + 674 u[53] + 762 u[54] + 818 u[55] + 920 u[56]
   + 276 u[57] + 433 u[58] + 603 u[59] <= 5076
 primal_lower7: - 11 y[0] - 121 y[1] - 216 y[2] - 200 y[3] - 37 y[4]
   - 244 y[5] - 175 y[6] - 29 y[7] - 151 y[8] - 58 y[9] - 162 y[10]
   - 34 y[11] - 69 y[12] - 107 y[13] - 258 y[14] - 260 y[15] - 210 y[16]
   - 34 y[17] - 120 y[18] - 163 y[19] - 188 y[20] - 169 y[21] - 187 y[22]
   - 258 y[23] - 145 y[24] - 108 y[25] - 165 y[26] - 48 y[27] - 111 y[28]
   - 257 y[29] - 161 y[30] - 211 y[31] - 173 y[32] - 64 y[33] - 150 y[34]
   - 127 y[35] - 213 y[36] - 109 y[37] - 213 y[38] - 76 y[39] - 103 y[40]
   - 50 y[41] - 266 y[42] - 120 y[43] - 151 y[44] - 142 y[45] - 75 y[46]
   - 123 y[47] - 21 y[48] - 78 y[49] - 81 y[50] - 38 y[51] - 259 y[52]
   - 204 y[53] - 187 y[54] - 141 y[55] - 123 y[56] - 121 y[57] - 40 y[58]
   - 146 y[59] + 378 u[0] + 728 u[1] + 318 u[2] + 977 u[3] + 436 u[4]
   + 330 u[5] + 237 u[6] + 814 u[7] + 478 u[8] + 188 u[9] + 84 u[10]
   + 883 u[11] + 895 u[12] + 948 u[13] + 390 u[14] + 774 u[15] + 639 u[16]
   + 57 u[17] + 724 u[18] + 53 u[19] + 902 u[20] + 953 u[21] + 933 u[22]
   + 637 u[23] + 510 u[24] + 685 u[25] + 998 u[26] + 236 u[27] + 439 u[28]
   + 785 u[29] + 775 u[30] + 950 u[31] + 335 u[32] + 16 u[33] + 818 u[34]
   + 260 u[35] + 531 u[36] + 501 u[37] + 408 u[38] + 260 u[39] + 167 u[40]
   + 740 u[41] + 634 u[42] + 281 u[43] + 870 u[44] + 646 u[45] + 777 u[46]
   + 554 u[47] + 311 u[48] + 299 u[49] + 626 u[50] + 225 u[51] + 292 u[52]
   + 194 u[53] + 898 u[54] + 290 u[55] + 288 u[56] + 444 u[57] + 961 u[58]
   + 707 u[59] <= 16233
 primal_lower8: - 249 y[0] - 95 y[1] - 213 y[2] - 236 y[3] - 12 y[4]
   - 64 y[5] - 23 y[6] - 120 y[7] - 60 y[8] - 178 y[9] - 52 y[10]
   - 47 y[11] - 92 y[12] - 247 y[13] - 258 y[14] - 20 y[15] - 86 y[16]
   - 243 y[17] - 258 y[18] - 44 y[19] - 92 y[20] - 156 y[21] - 130 y[22]
   - 179 y[23] - 154 y[24] - 233 y[25] - 3 y[26] - 242 y[27] - 29 y[28]
   - 202 y[29] - 5 y[30] - 120 y[31] - 216 y[32] - 3 y[33] - 239 y[34]
   - 24 y[35] - 100 y[36] - 87 y[37] - 224 y[38] - 81 y[39] - 132 y[40]
   - 157 y[41] - 127 y[42] - 140 y[43] - 155 y[44] - 112 y[45] - 176 y[46]
   - 20 y[47] - 131 y[48] - 122 y[49] - 213 y[50] - 146 y[51] - 47 y[52]
   - 253 y[53] - 175 y[54] - 65 y[55] - 34 y[56] - 91 y[57] - 52 y[58]
   - 249 y[59] + 878 u[0] + 548 u[1] + 538 u[2] + 357 u[3] + 824 u[4]
   + 718 u[5] + 961 u[6] + 890 u[7] + 714 u[8] + 944 u[9] + 320 u[10]
   + 239 u[11] + 411 u[12] + 640 u[13] + 906 u[14] + 410 u[15] + 835 u[16]
   + 237 u[17] + 464 u[18] + 33 u[19] + 290 u[20] + 589 u[21] + 209 u[22]
   + 833 u[23] + 258 u[24] + 33 u[25] + 978 u[26] + 408 u[27] + 259 u[28]
   + 813 u[29] + 971 u[30] + 402 u[31] + 187 u[32] + 780 u[33] + 518 u[34]
   + 392 u[35] + 431 u[36] + 993 u[37] + 588 u[38] + 896 u[39] + 35 u[40]
   + 856 u[41] + 78 u[42] + 381 u[43] + 474 u[44] + 802 u[45] + 597 u[46]
   + 198 u[47] + 499 u[48] + 559 u[49] + 398 u[50] + 501 u[51] + 568 u[52]
   + 14 u[53] + 830 u[54] + 846 u[55] + 268 u[56] + 8 u[57] + 589 u[58]
   + 7 u[59] <= 15601
 primal_lower9: - 3 y[0] - 69 y[1] - 41 y[2] - 66 y[3] - 58 y[4] - 34 y[5]
   - 28 y[6] - 63 y[7] - 84 y[8] - 56 y[9] - 7 y[10] - 46 y[11] - 45 y[12]
   - 60 y[13] - 83 y[14] - 18 y[15] - 16 y[16] - 57 y[17] - 16 y[18]
   - 43 y[19] - 76 y[20] - 55 y[21] - 37 y[22] - 22 y[23] - 71 y[24]
   - 58 y[25] - 86 y[26] - 52 y[27] - 31 y[28] - 72 y[29] - 8 y[30]
   - 77 y[31] - 28 y[32] - 36 y[33] - 85 y[34] - 68 y[35] - 65 y[36]
   - 86 y[37] - 44 y[38] - 12 y[39] - 7 y[40] - 16 y[41] - 4 y[42]
   - 11 y[43] - 22 y[44] - 44 y[45] - 9 y[46] - 4 y[47] - 43 y[48]
   - 13 y[49] - 10 y[50] - 57 y[51] - 74 y[52] - 63 y[53] - 64 y[54]
   - 79 y[55] - 12 y[56] - 6 y[57] - 17 y[58] - 7 y[59] + 575 u[0]
   + 832 u[1] + 936 u[2] + 532 u[3] + 338 u[4] + 730 u[5] + 863 u[6]
   + 130 u[7] + 28 u[8] + 723 u[9] + 629 u[10] + 47 u[11] + 893 u[12]
   + 619 u[13] + 671 u[14] + 561 u[15] + 541 u[16] + 248 u[17] + 974 u[18]
   + 416 u[19] + 939 u[20] + 609 u[21] + 95 u[22] + 769 u[23] + 604 u[24]
   + 349 u[25] + 112 u[26] + 976 u[27] + 596 u[28] + 329 u[29] + 856 u[30]
   + 450 u[31] + 45 u[32] + 896 u[33] + 12 u[34] + 792 u[35] + 425 u[36]
   + 492 u[37] + 962 u[38] + 447 u[39] + 773 u[40] + 635 u[41] + 779 u[42]
   + 101 u[43] + 948 u[44] + 38 u[45] + 682 u[46] + 198 u[47] + 740 u[48]
   + 883 u[49] + 172 u[50] + 84 u[51] + 930 u[52] + 826 u[53] + 107 u[54]
   + 109 u[55] + 245 u[56] + 92 u[57] + 531 u[58] + 630 u[59] <= 5257
 mccormick1[0]: - u[0] + z[0] <= 0
 mccormick1[1]: - u[1] + z[1] <= 0
 mccormick1[2]: - u[2] + z[2] <= 0
 mccormick1[3]: - u[3] + z[3] <= 0
 mccormick1[4]: - u[4] + z[4] <= 0
 mccormick1[5]: - u[5] + z[5] <= 0
 mccormick1[6]: - u[6] + z[6] <= 0
 mccormick1[7]: - u[7] + z[7] <= 0
 mccormick1[8]: - u[8] + z[8] <= 0
 mccormick1[9]: - u[9] + z[9] <= 0
 mccormick1[10]: - u[10] + z[10] <= 0
 mccormick1[11]: - u[11] + z[11] <= 0
 mccormick1[12]: - u[12] + z[12] <= 0
 mccormick1[13]: - u[13] + z[13] <= 0
 mccormick1[14]: - u[14] + z[14] <= 0
 mccormick1[15]: - u[15] + z[15] <= 0
 mccormick1[16]: - u[16] + z[16] <= 0
 mccormick1[17]: - u[17] + z[17] <= 0
 mccormick1[18]: - u[18] + z[18] <= 0
 mccormick1[19]: - u[19] + z[19] <= 0
 mccormick1[20]: - u[20] + z[20] <= 0
 mccormick1[21]: - u[21] + z[21] <= 0
 mccormick1[22]: - u[22] + z[22] <= 0
 mccormick1[23]: - u[23] + z[23] <= 0
 mccormick1[24]: - u[24] + z[24] <= 0
 mccormick1[25]: - u[25] + z[25] <= 0
 mccormick1[26]: - u[26] + z[26] <= 0
 mccormick1[27]: - u[27] + z[27] <= 0
 mccormick1[28]: - u[28] + z[28] <= 0
 mccormick1[29]: - u[29] + z[29] <= 0
 mccormick1[30]: - u[30] + z[30] <= 0
 mccormick1[31]: - u[31] + z[31] <= 0
 mccormick1[32]: - u[32] + z[32] <= 0
 mccormick1[33]: - u[33] + z[33] <= 0
 mccormick1[34]: - u[34] + z[34] <= 0
 mccormick1[35]: - u[35] + z[35] <= 0
 mccormick1[36]: - u[36] + z[36] <= 0
 mccormick1[37]: - u[37] + z[37] <= 0
 mccormick1[38]: - u[38] + z[38] <= 0
 mccormick1[39]: - u[39] + z[39] <= 0
 mccormick1[40]: - u[40] + z[40] <= 0
 mccormick1[41]: - u[41] + z[41] <= 0
 mccormick1[42]: - u[42] + z[42] <= 0
 mccormick1[43]: - u[43] + z[43] <= 0
 mccormick1[44]: - u[44] + z[44] <= 0
 mccormick1[45]: - u[45] + z[45] <= 0
 mccormick1[46]: - u[46] + z[46] <= 0
 mccormick1[47]: - u[47] + z[47] <= 0
 mccormick1[48]: - u[48] + z[48] <= 0
 mccormick1[49]: - u[49] + z[49] <= 0
 mccormick1[50]: - u[50] + z[50] <= 0
 mccormick1[51]: - u[51] + z[51] <= 0
 mccormick1[52]: - u[52] + z[52] <= 0
 mccormick1[53]: - u[53] + z[53] <= 0
 mccormick1[54]: - u[54] + z[54] <= 0
 mccormick1[55]: - u[55] + z[55] <= 0
 mccormick1[56]: - u[56] + z[56] <= 0
 mccormick1[57]: - u[57] + z[57] <= 0
 mccormick1[58]: - u[58] + z[58] <= 0
 mccormick1[59]: - u[59] + z[59] <= 0
 mccormick2[0]: - y[0] + z[0] <= 0
 mccormick2[1]: - y[1] + z[1] <= 0
 mccormick2[2]: - y[2] + z[2] <= 0
 mccormick2[3]: - y[3] + z[3] <= 0
 mccormick2[4]: - y[4] + z[4] <= 0
 mccormick2[5]: - y[5] + z[5] <= 0
 mccormick2[6]: - y[6] + z[6] <= 0
 mccormick2[7]: - y[7] + z[7] <= 0
 mccormick2[8]: - y[8] + z[8] <= 0
 mccormick2[9]: - y[9] + z[9] <= 0
 mccormick2[10]: - y[10] + z[10] <= 0
 mccormick2[11]: - y[11] + z[11] <= 0
 mccormick2[12]: - y[12] + z[12] <= 0
 mccormick2[13]: - y[13] + z[13] <= 0
 mccormick2[14]: - y[14] + z[14] <= 0
 mccormick2[15]: - y[15] + z[15] <= 0
 mccormick2[16]: - y[16] + z[16] <= 0
 mccormick2[17]: - y[17] + z[17] <= 0
 mccormick2[18]: - y[18] + z[18] <= 0
 mccormick2[19]: - y[19] + z[19] <= 0
 mccormick2[20]: - y[20] + z[20] <= 0
 mccormick2[21]: - y[21] + z[21] <= 0
 mccormick2[22]: - y[22] + z[22] <= 0
 mccormick2[23]: - y[23] + z[23] <= 0
 mccormick2[24]: - y[24] + z[24] <= 0
 mccormick2[25]: - y[25] + z[25] <= 0
 mccormick2[26]: - y[26] + z[26] <= 0
 mccormick2[27]: - y[27] + z[27] <= 0
 mccormick2[28]: - y[28] + z[28] <= 0
 mccormick2[29]: - y[29] + z[29] <= 0
 mccormick2[30]: - y[30] + z[30] <= 0
 mccormick2[31]: - y[31] + z[31] <= 0
 mccormick2[32]: - y[32] + z[32] <= 0
 mccormick2[33]: - y[33] + z[33] <= 0
 mccormick2[34]: - y[34] + z[34] <= 0
 mccormick2[35]: - y[35] + z[35] <= 0
 mccormick2[36]: - y[36] + z[36] <= 0
 mccormick2[37]: - y[37] + z[37] <= 0
 mccormick2[38]: - y[38] + z[38] <= 0
 mccormick2[39]: - y[39] + z[39] <= 0
 mccormick2[40]: - y[40] + z[40] <= 0
 mccormick2[41]: - y[41] + z[41] <= 0
 mccormick2[42]: - y[42] + z[42] <= 0
 mccormick2[43]: - y[43] + z[43] <= 0
 mccormick2[44]: - y[44] + z[44] <= 0
 mccormick2[45]: - y[45] + z[45] <= 0
 mccormick2[46]: - y[46] + z[46] <= 0
 mccormick2[47]: - y[47] + z[47] <= 0
 mccormick2[48]: - y[48] + z[48] <= 0
 mccormick2[49]: - y[49] + z[49] <= 0
 mccormick2[50]: - y[50] + z[50] <= 0
 mccormick2[51]: - y[51] + z[51] <= 0
 mccormick2[52]: - y[52] + z[52] <= 0
 mccormick2[53]: - y[53] + z[53] <= 0
 mccormick2[54]: - y[54] + z[54] <= 0
 mccormick2[55]: - y[55] + z[55] <= 0
 mccormick2[56]: - y[56] + z[56] <= 0
 mccormick2[57]: - y[57] + z[57] <= 0
 mccormick2[58]: - y[58] + z[58] <= 0
 mccormick2[59]: - y[59] + z[59] <= 0
 mccormick3[0]: y[0] + u[0] - z[0] <= 1
 mccormick3[1]: y[1] + u[1] - z[1] <= 1
 mccormick3[2]: y[2] + u[2] - z[2] <= 1
 mccormick3[3]: y[3] + u[3] - z[3] <= 1
 mccormick3[4]: y[4] + u[4] - z[4] <= 1
 mccormick3[5]: y[5] + u[5] - z[5] <= 1
 mccormick3[6]: y[6] + u[6] - z[6] <= 1
 mccormick3[7]: y[7] + u[7] - z[7] <= 1
 mccormick3[8]: y[8] + u[8] - z[8] <= 1
 mccormick3[9]: y[9] + u[9] - z[9] <= 1
 mccormick3[10]: y[10] + u[10] - z[10] <= 1
 mccormick3[11]: y[11] + u[11] - z[11] <= 1
 mccormick3[12]: y[12] + u[12] - z[12] <= 1
 mccormick3[13]: y[13] + u[13] - z[13] <= 1
 mccormick3[14]: y[14] + u[14] - z[14] <= 1
 mccormick3[15]: y[15] + u[15] - z[15] <= 1
 mccormick3[16]: y[16] + u[16] - z[16] <= 1
 mccormick3[17]: y[17] + u[17] - z[17] <= 1
 mccormick3[18]: y[18] + u[18] - z[18] <= 1
 mccormick3[19]: y[19] + u[19] - z[19] <= 1
 mccormick3[20]: y[20] + u[20] - z[20] <= 1
 mccormick3[21]: y[21] + u[21] - z[21] <= 1
 mccormick3[22]: y[22] + u[22] - z[22] <= 1
 mccormick3[23]: y[23] + u[23] - z[23] <= 1
 mccormick3[24]: y[24] + u[24] - z[24] <= 1
 mccormick3[25]: y[25] + u[25] - z[25] <= 1
 mccormick3[26]: y[26] + u[26] - z[26] <= 1
 mccormick3[27]: y[27] + u[27] - z[27] <= 1
 mccormick3[28]: y[28] + u[28] - z[28] <= 1
 mccormick3[29]: y[29] + u[29] - z[29] <= 1
 mccormick3[30]: y[30] + u[30] - z[30] <= 1
 mccormick3[31]: y[31] + u[31] - z[31] <= 1
 mccormick3[32]: y[32] + u[32] - z[32] <= 1
 mccormick3[33]: y[33] + u[33] - z[33] <= 1
 mccormick3[34]: y[34] + u[34] - z[34] <= 1
 mccormick3[35]: y[35] + u[35] - z[35] <= 1
 mccormick3[36]: y[36] + u[36] - z[36] <= 1
 mccormick3[37]: y[37] + u[37] - z[37] <= 1
 mccormick3[38]: y[38] + u[38] - z[38] <= 1
 mccormick3[39]: y[39] + u[39] - z[39] <= 1
 mccormick3[40]: y[40] + u[40] - z[40] <= 1
 mccormick3[41]: y[41] + u[41] - z[41] <= 1
 mccormick3[42]: y[42] + u[42] - z[42] <= 1
 mccormick3[43]: y[43] + u[43] - z[43] <= 1
 mccormick3[44]: y[44] + u[44] - z[44] <= 1
 mccormick3[45]: y[45] + u[45] - z[45] <= 1
 mccormick3[46]: y[46] + u[46] - z[46] <= 1
 mccormick3[47]: y[47] + u[47] - z[47] <= 1
 mccormick3[48]: y[48] + u[48] - z[48] <= 1
 mccormick3[49]: y[49] + u[49] - z[49] <= 1
 mccormick3[50]: y[50] + u[50] - z[50] <= 1
 mccormick3[51]: y[51] + u[51] - z[51] <= 1
 mccormick3[52]: y[52] + u[52] - z[52] <= 1
 mccormick3[53]: y[53] + u[53] - z[53] <= 1
 mccormick3[54]: y[54] + u[54] - z[54] <= 1
 mccormick3[55]: y[55] + u[55] - z[55] <= 1
 mccormick3[56]: y[56] + u[56] - z[56] <= 1
 mccormick3[57]: y[57] + u[57] - z[57] <= 1
 mccormick3[58]: y[58] + u[58] - z[58] <= 1
 mccormick3[59]: y[59] + u[59] - z[59] <= 1
Bounds
Binaries
 y[0] y[1] y[2] y[3] y[4] y[5] y[6] y[7] y[8] y[9] y[10] y[11] y[12] y[13]
 y[14] y[15] y[16] y[17] y[18] y[19] y[20] y[21] y[22] y[23] y[24] y[25]
 y[26] y[27] y[28] y[29] y[30] y[31] y[32] y[33] y[34] y[35] y[36] y[37]
 y[38] y[39] y[40] y[41] y[42] y[43] y[44] y[45] y[46] y[47] y[48] y[49]
 y[50] y[51] y[52] y[53] y[54] y[55] y[56] y[57] y[58] y[59] u[0] u[1] u[2]
 u[3] u[4] u[5] u[6] u[7] u[8] u[9] u[10] u[11] u[12] u[13] u[14] u[15]
 u[16] u[17] u[18] u[19] u[20] u[21] u[22] u[23] u[24] u[25] u[26] u[27]
 u[28] u[29] u[30] u[31] u[32] u[33] u[34] u[35] u[36] u[37] u[38] u[39]
 u[40] u[41] u[42] u[43] u[44] u[45] u[46] u[47] u[48] u[49] u[50] u[51]
 u[52] u[53] u[54] u[55] u[56] u[57] u[58] u[59] z[0] z[1] z[2] z[3] z[4]
 z[5] z[6] z[7] z[8] z[9] z[10] z[11] z[12] z[13] z[14] z[15] z[16] z[17]
 z[18] z[19] z[20] z[21] z[22] z[23] z[24] z[25] z[26] z[27] z[28] z[29]
 z[30] z[31] z[32] z[33] z[34] z[35] z[36] z[37] z[38] z[39] z[40] z[41]
 z[42] z[43] z[44] z[45] z[46] z[47] z[48] z[49] z[50] z[51] z[52] z[53]
 z[54] z[55] z[56] z[57] z[58] z[59]
End
